
%FILE DATA:	Soccer Computational Problem for MiniZinc Models	%
%AUTHOR:	Jack Wall	%
%CONTACT:  	116397063@umail.ucc.ie			%
%LAST UPDATE:	03/03/2020, 16:38:38						%
%DESCRIPTION: 	99 games played with 11 games left				%


n=11; %number of teams

%Games to play
games=[|3,11|5,6|3,10|3,9|1,2|6,10|7,10|2,6|8,7|1,6|7,11|];

%Initial points
iPoints=[27,28,28,29,22,28,26,21,27,24,12];

%POSITION CONSTRAINTS
% [|teamID, operator, position|...]
% operators index:
%  1 for =  operator
%  2 for >  operator
%  3 for >= operator
%  4 for <  operator
%  5 for <= operator
positionConstraints=[|6,4,2|3,2,1|1,2,2|10,1,4|];